c FILE /home/rafael/Documents/HappySet/MIHS/inputs/happygen/output/graph_d_regular_k4_p0.2_v50_20241127_082611.txt
c SOURCE This is a d-regular graph formed for the happy graph colouring problem.
c DESCRIPTION It was generated using the problem generator of Rhyd Lewis
c
c GRAPH STATS
c Seed                             = -302199524
c Number of Nodes                  = 50
c Number of colours k              = 4
c Number of pre-assignments        = 10
c Degree of all vertices           = 6
c Density                          = 0.122449
c 
c The degrees of nodes 1 to 50, respectively, are as follows 
c [6, 6, 6, 6, 6, 6, 6, 6, 6, 6, 6, 6, 6, 6, 6, 6, 6, 6, 6, 6, 6, 6, 6, 6, 6, 6, 
c  6, 6, 6, 6, 6, 6, 6, 6, 6, 6, 6, 6, 6, 6, 6, 6, 6, 6, 6, 6, 6, 6, 6, 6] 
c  
p edge 50 150 4
e 1 7
e 1 15
e 1 20
e 1 41
e 1 42
e 1 43
e 2 3
e 2 5
e 2 7
e 2 18
e 2 27
e 2 37
e 3 11
e 3 22
e 3 24
e 3 31
e 3 33
e 4 10
e 4 23
e 4 35
e 4 37
e 4 44
e 4 49
e 5 9
e 5 13
e 5 30
e 5 42
e 5 45
e 6 9
e 6 19
e 6 27
e 6 31
e 6 37
e 6 50
e 7 17
e 7 37
e 7 40
e 7 48
e 8 10
e 8 13
e 8 16
e 8 23
e 8 28
e 8 38
e 9 13
e 9 15
e 9 26
e 9 41
e 10 13
e 10 20
e 10 36
e 10 39
e 11 12
e 11 14
e 11 18
e 11 35
e 11 42
e 12 17
e 12 20
e 12 30
e 12 40
e 12 47
e 13 17
e 13 34
e 14 15
e 14 18
e 14 21
e 14 43
e 14 49
e 15 23
e 15 24
e 15 48
e 16 19
e 16 32
e 16 37
e 16 45
e 16 47
e 17 31
e 17 38
e 17 40
e 18 27
e 18 37
e 18 49
e 19 20
e 19 38
e 19 44
e 19 50
e 20 46
e 20 48
e 21 29
e 21 31
e 21 43
e 21 49
e 21 50
e 22 24
e 22 31
e 22 36
e 22 41
e 22 46
e 23 26
e 23 43
e 23 46
e 24 32
e 24 33
e 24 34
e 25 30
e 25 32
e 25 38
e 25 44
e 25 47
e 25 49
e 26 29
e 26 33
e 26 35
e 26 42
e 27 29
e 27 32
e 27 40
e 28 31
e 28 38
e 28 39
e 28 45
e 28 46
e 29 34
e 29 43
e 29 50
e 30 34
e 30 42
e 30 47
e 32 33
e 32 47
e 33 36
e 33 39
e 34 41
e 34 46
e 35 44
e 35 45
e 35 50
e 36 41
e 36 43
e 36 48
e 38 45
e 39 40
e 39 48
e 39 50
e 40 45
e 41 44
e 42 48
e 44 49
e 46 47
n 7 3
n 12 2
n 22 3
n 29 4
n 30 2
n 33 1
n 39 1
n 42 2
n 43 4
n 49 1
